Ge_fcc_hydrostatic (0%) d0=2.44999
10
10 0 0
0 10 0 
0 0 1
Ge
2
direct
0.000000 0.000000 0.000000 Ge
0.000000 0.000000 0.500000 Ge
